p wcnf 147 175 176 
1 -9 8 0 
1 -82 59 0 
1 -31 -119 0 
1 101 51 0 
1 -126 -27 0 
1 -19 -101 0 
1 89 99 0 
1 -65 -2 0 
1 -137 -34 0 
1 -128 -119 0 
1 -138 6 0 
1 113 -28 0 
1 -46 -123 0 
1 -7 -125 0 
1 -26 48 0 
1 -76 105 0 
1 132 82 0 
1 -40 129 0 
1 139 -72 0 
1 -101 11 0 
1 -88 52 0 
1 -23 3 0 
1 -25 117 0 
1 -70 -125 0 
1 130 -40 0 
1 22 138 0 
1 -17 -54 0 
1 45 29 0 
1 -13 56 0 
1 138 126 0 
1 109 -129 0 
1 -3 142 0 
1 54 -129 0 
1 -10 119 0 
1 32 8 0 
1 123 81 0 
1 89 15 0 
1 102 115 0 
1 3 -26 0 
1 98 -109 0 
1 -50 26 0 
1 18 -143 0 
1 -90 116 0 
1 -46 -18 0 
1 16 -20 0 
1 125 110 0 
1 11 37 0 
1 1 -97 0 
1 -74 123 0 
1 -86 -73 0 
1 94 124 0 
1 65 106 0 
1 -19 -114 0 
1 35 -137 0 
1 -124 17 0 
1 -68 -94 0 
1 -6 120 0 
1 100 101 0 
1 115 -141 0 
1 44 146 0 
1 51 -52 0 
1 -12 23 0 
1 139 26 0 
1 -26 -130 0 
1 36 45 0 
1 -133 -141 0 
1 -30 -17 0 
1 -141 93 0 
1 -69 -25 0 
1 -5 87 0 
1 4 -12 0 
1 -139 -106 0 
1 66 -103 0 
1 111 -139 0 
1 30 -47 0 
1 140 -137 0 
1 117 -89 0 
1 60 54 0 
1 -13 97 0 
1 123 43 0 
1 -48 84 0 
1 11 -25 0 
1 -115 125 0 
1 -140 31 0 
1 -56 -63 0 
1 -41 -44 0 
1 58 117 0 
1 -6 80 0 
1 -11 -92 0 
1 32 57 0 
1 66 -90 0 
1 87 9 0 
1 59 74 0 
1 -83 132 0 
1 47 -68 0 
1 124 11 0 
1 132 -58 0 
1 68 60 0 
1 123 81 0 
1 118 54 0 
1 48 -61 0 
1 -98 -65 0 
1 -57 -43 0 
1 -72 -121 0 
1 44 -74 0 
1 35 106 0 
1 -134 -102 0 
1 82 -83 0 
1 56 -142 0 
1 -52 1 0 
1 129 -104 0 
1 130 7 0 
1 -33 -57 0 
1 36 -26 0 
1 121 -40 0 
1 -67 -38 0 
1 -141 76 0 
1 -83 77 0 
1 -117 -96 0 
1 -60 -44 0 
1 -61 110 0 
1 18 -17 0 
1 -33 -56 0 
1 75 121 0 
1 21 130 0 
1 -73 -82 0 
1 29 82 0 
1 -81 -83 0 
1 26 -131 0 
1 -118 78 0 
1 92 -57 0 
1 50 103 0 
1 -43 -127 0 
1 42 66 0 
1 -3 -9 0 
1 -127 -68 0 
1 -130 -28 0 
1 55 -130 0 
1 101 5 0 
1 -58 -93 0 
1 39 12 0 
1 94 -27 0 
1 -12 -30 0 
1 91 -89 0 
1 90 -135 0 
1 -118 -47 0 
1 30 -8 0 
1 37 115 0 
1 122 -71 0 
1 -5 -69 0 
1 75 -121 0 
1 -30 -122 0 
1 -128 -142 0 
1 -4 -77 0 
1 -27 117 0 
1 -145 132 0 
1 57 -65 0 
1 99 74 0 
1 19 -58 0 
1 18 -12 0 
1 -53 -135 0 
1 -85 -24 0 
1 -141 123 0 
1 9 125 0 
1 65 -64 0 
1 -17 87 0 
1 -121 109 0 
1 123 -88 0 
1 111 -125 0 
1 120 105 0 
1 -82 -66 0 
1 -61 -50 0 
1 -91 137 0 
1 -29 -143 0 
1 136 129 0 
